c
c start with comments
c
p cnf 24 20
1 -17 -24 4 0
-17 21 15 5 19 0
-7 19 -16 0
22 4 5 -16 -3 0
23 4 -17 2 -21 -3 0
18 8 12 -21 0
23 -24 4 -16 0
4 15 11 13 8 0
4 19 -17 -22 -21 0
12 20 22 2 -5 0
-14 -20 -14 0
20 19 8 0
-9 24 0
-17 13 14 0
3 8 2 -17 0
-6 -6 0
16 17 11 -7 11 0
12 3 9 3 0
11 14 16 15 -10 0
21 -7 21 -7 2 16 0